c Generated map
c Size: 8 * 8, weights in range: 1 to 10, walls: True, with ratio 0.1
c dim 10 of 10
c
p sp 64 95
c graph contains 64 nodes and 95 arcs
c
a 1 2 10
a 2 1 10
a 2 10 4
a 10 2 4
a 2 3 8
a 3 2 8
a 3 11 7
a 11 3 7
a 3 4 4
a 4 3 4
a 4 12 10
a 12 4 10
a 4 5 8
a 5 4 8
a 5 13 7
a 13 5 7
a 5 6 9
a 6 5 9
a 6 14 9
a 14 6 9
a 6 7 5
a 7 6 5
a 7 15 1
a 15 7 1
a 7 8 2
a 8 7 2
a 10 18 9
a 18 10 9
a 10 11 8
a 11 10 8
a 11 19 9
a 19 11 9
a 11 12 6
a 12 11 6
a 12 20 3
a 20 12 3
a 12 13 2
a 13 12 2
a 13 21 3
a 21 13 3
a 13 14 4
a 14 13 4
a 14 15 7
a 15 14 7
a 15 23 6
a 23 15 6
a 17 25 7
a 25 17 7
a 17 18 7
a 18 17 7
a 18 26 10
a 26 18 10
a 18 19 2
a 19 18 2
a 19 27 10
a 27 19 10
a 19 20 2
a 20 19 2
a 20 28 6
a 28 20 6
a 20 21 1
a 21 20 1
a 21 29 8
a 29 21 8
a 23 31 6
a 31 23 6
a 25 33 6
a 33 25 6
a 25 26 3
a 26 25 3
a 26 34 4
a 34 26 4
a 26 27 5
a 27 26 5
a 27 35 4
a 35 27 4
a 27 28 10
a 28 27 10
a 28 36 9
a 36 28 9
a 28 29 9
a 29 28 9
a 29 37 2
a 37 29 2
a 31 39 8
a 39 31 8
a 31 32 2
a 32 31 2
a 32 40 9
a 40 32 9
a 33 41 1
a 41 33 1
a 33 34 9
a 34 33 9
a 34 42 9
a 42 34 9
a 34 35 5
a 35 34 5
a 35 43 7
a 43 35 7
a 35 36 9
a 36 35 9
a 36 44 3
a 44 36 3
a 36 37 6
a 37 36 6
a 37 45 8
a 45 37 8
a 37 38 8
a 38 37 8
a 38 46 3
a 46 38 3
a 38 39 5
a 39 38 5
a 39 47 7
a 47 39 7
a 39 40 8
a 40 39 8
a 40 48 3
a 48 40 3
a 41 49 5
a 49 41 5
a 41 42 5
a 42 41 5
a 42 50 8
a 50 42 8
a 42 43 2
a 43 42 2
a 43 51 1
a 51 43 1
a 43 44 6
a 44 43 6
a 44 52 1
a 52 44 1
a 44 45 1
a 45 44 1
a 45 53 9
a 53 45 9
a 45 46 2
a 46 45 2
a 46 54 3
a 54 46 3
a 46 47 10
a 47 46 10
a 47 55 9
a 55 47 9
a 47 48 6
a 48 47 6
a 48 56 1
a 56 48 1
a 49 50 3
a 50 49 3
a 50 58 3
a 58 50 3
a 50 51 7
a 51 50 7
a 51 59 6
a 59 51 6
a 51 52 2
a 52 51 2
a 52 60 6
a 60 52 6
a 52 53 2
a 53 52 2
a 53 61 10
a 61 53 10
a 53 54 6
a 54 53 6
a 54 62 3
a 62 54 3
a 54 55 9
a 55 54 9
a 55 63 3
a 63 55 3
a 55 56 3
a 56 55 3
a 56 64 9
a 64 56 9
a 58 59 6
a 59 58 6
a 59 60 4
a 60 59 4
a 60 61 6
a 61 60 6
a 61 62 9
a 62 61 9
a 62 63 3
a 63 62 3
a 63 64 3
a 64 63 3
